130 6839
1 41 39 71 3 83 30 59 90 125 85 66 78 121 126 114 8 108 18 21 33 23 122 55 44 42 60 51 120 53 58 49 92 73 99 74 75 52 9 57 56 65 87 12 81 29 15 100 24 116 95 79 38 106 72 91 6 102 14 10 96 67 13 40 47 22 37 93 46 80 118 20 4 35 54 34 70 97 7 26 88 86 69 64 124 129 61 109 76 11 5 45 16 128 105 62 28 115 112 117 130 50 2 17 31 27 19 89 94 77 103 82 101 123 111 119 84 36 113 32 98 110 25 48 68 63 43 104 107 127 
